============================[ Problem Statistics ]=============================|                                                                             ||  Number of variables:          4242                                         ||  Number of clauses:           10002                                         ||  Parse time:                   0.41 s                                       ||                                                                             |============================[ Search Statistics ]==============================| Conflicts |          ORIGINAL         |          LEARNT          | Progress ||           |    Vars  Clauses Literals |    Limit  Clauses Lit/Cl |          |===============================================================================|       100 |    1591     6207   622738 |     2275      100     53 | 62.501 % |===============================================================================restarts              : 3conflicts             : 225            (371 /sec)decisions             : 490            (0.00 % random) (807 /sec)propagations          : 11700          (19275 /sec)conflict literals     : 16491          (95.01 % deleted)CPU time              : 0.607 sSATISFIABLE